# 初始化
units         metal
boundary      p p p
atom_style    atomic
timestep      0.001

# 建模
lattice       fcc 3.56
region        box block 0 20 0 20 0 20
create_box    5 box
create_atoms    1 box

#将type为1的原子转换为其他原子
set    type 1 type/ratio 2 0.2 12333
set    type 1 type/ratio 3 0.5 12333
set    type 1 type/ratio 4 0.5 12333
set    type 3 type/ratio 5 0.5 12333

#设置原子类型
mass    1 27 #Al
mass    2 56 #Fe
mass    3 28 #Si
mass    4 64 #Cu
mass    5 24 #Mg
