atom_style atomic 
atom_modify map array

